Instance name : R208
Authors : bauke
Date :    21-05-13
Reference : N/A
Solution
Route 1 : 27 52 7 88 31 10 62 11 63 90 32 30 70 69 1 50 76 12 26 28 53 2 57 42 87 97 59 99 5 84 17 45 8 46 47 36 49 64 19 48 82 18 83 60 93 91 100 37 95 94 13
Route 2 : 89 6 96 92 98 85 61 16 86 44 38 14 43 15 41 22 75 56 23 67 39 24 29 79 33 81 9 51 20 66 65 71 35 34 78 3 77 68 80 54 55 25 4 72 74 73 21 40 58

